NAME : rnd7_20.tsp
TYPE : TSP
DIMENSION : 20
EDGE_WEIGHT_TYPE : EUC_2D
NODE_COORD_SECTION
1 622 209
2 184 712
3 138 622
4 138 341
5 370 973
6 310 594
7 183 0
8 984 941
9 357 208
10 456 808
11 193 484
12 551 584
13 724 736
14 822 30
15 116 786
16 273 198
17 191 274
18 701 357
19 485 637
20 818 656
